# MB-pol Bulk water simulation
# Suman Saha - June 28, 2024 

# Define the required variables
variable        temp        equal  298.0  # simulation temperature
variable        dt          equal  0.5    # time step in fs
variable        pressure    equal  1      # pressure of the system in atm
variable        thermo_freq equal  1      # themo printing frequeny
variable        dump_freq   equal  1      # traj printing frequeny
variable        nsteps      equal  500    # number of simulation steps
variable        print_freq  equal  1      # priting freqency
variable        seed        equal  124678 # random seed

processors * * * map xyz

units real
atom_style full
boundary        p p p

# reading the initial configaration
read_data data.system

# Defining atom types for the system
variable       O equal 1
variable       H equal 2

# Defining the Force Field
pair_style  mbx  9.0         # distance cut-off 9.0
pair_coeff  * *  0.0 0.0     # providing dummy number for the pair_coeff
pair_modify     tail yes     # long range correction - yes

# Try to Google this command and find out what it does
neighbor        2.0 bin
neigh_modify    every 1 delay 10 check yes

# Calculating MB-nrg dicomposion 
compute         mbx all pair mbx

# comamnd formula for `fix mbx`
# fix <name_of_fix> <atom_group> mbx <number of monomer type> <monomer_type> <start_atom_type_for_the_monomer> <end_atom_type_for_the_monomer> <total_number_of_atoms_in_a_monomer> <atom indexs in the monomer for all atoms> json <json file>
fix             MBX all mbx 1 h2o 1 2 3 ${O} ${H} ${H} json mbx.json 

# Defining the timestep
timestep        ${dt}

# 
thermo_style    custom step time temp etotal pe press vol density lx c_mbx[1] c_mbx[2] c_mbx[3] c_mbx[4] c_mbx[5] c_mbx[6] c_mbx[7] c_mbx[8]
thermo          ${thermo_freq}
thermo_modify   flush yes

# Try to Google this command and find out what it does
velocity        all create ${temp} ${seed} rot yes dist gaussian

# Printing desierd properites to a file
fix             mbx_print all print ${print_freq} "$(time) $(c_mbx[1]) $(c_mbx[2]) $(c_mbx[3]) $(c_mbx[4]) $(c_mbx[6]) $(c_mbx[6]) $(c_mbx[7]) $(c_mbx[8])" file mbx_thermo.out screen no title "# time e1bpip e2bpip e3bpip e4bpip edisp ebuck eele etot"

fix             thermo_print all print ${print_freq} "$(step) $(time) $(temp) $(etotal) $(ke) $(pe) $(enthalpy) $(density) $(lx) $(ly) $(lz) $(vol) $(pxx) $(pyy) $(pzz) $(press)" file thermo.out screen no title "# step time temp etotal ke pe enthalpy density lx ly lz vol pxx pyy pzz press"

# NPT simulation
fix             mynpt all npt temp ${temp} ${temp} $(100.0*dt) iso ${pressure} ${pressure} $(1000.0*dt) tchain 4

# For printing the trajectory file
dump            2 all custom ${dump_freq} traj_npt.lammpstrj id type x y z
dump_modify     2 sort id

# writing restart files in between the simulation
restart         10 restart.inter.1 restart.inter.2

# run the simulaiton 
run             ${nsteps} 

# write teh final configaration to a file
write_data final_data.system nocoeff
